(set-info :original "testgen.tmp3.bc")
(set-info :authors "SeaHorn v.10.0.0-rc0")
(declare-rel verifier.error (Bool Bool Bool ))
(declare-rel main@_loop.bound ())
(declare-rel main@_.01 (Int Int Int ))
(declare-rel main@_13 (Int Int Int ))
(declare-rel main@_ret ())
(declare-rel main@empty.loop (Int Int Int ))
(declare-rel main@empty.loop.body (Int Int Int ))
(declare-var main@%_not._0 Bool )
(declare-var main@%not._0 Bool )
(declare-var main@%_.12_0 Int )
(declare-var main@%_.1_0 Int )
(declare-var main@%_11_0 Int )
(declare-var main@%_br2_0 Bool )
(declare-var main@%nd.loop.cond_0 Bool )
(declare-var main@%_call_0 Bool )
(declare-var main@%_3_0 Int )
(declare-var main@%_5_0 Int )
(declare-var main@%loop.bound_0 Int )
(declare-var main@%_call1_0 Int )
(declare-var main@%_br_0 Int )
(declare-var main@%.01_0 Int )
(declare-var main@%.0_0 Int )
(declare-var main@%.12_0 Int )
(declare-var main@%.1_0 Int )
(declare-var main@%_br3_0 Int )
(rule (verifier.error false false false))
(rule (verifier.error false true true))
(rule (verifier.error true false true))
(rule (verifier.error true true true))
(rule main@_loop.bound)
(rule (=> (and main@_loop.bound
         true
         (= main@%_call_0 (= main@%loop.bound_0 100000))
         main@%_call_0
         (= main@%_call1_0 (+ main@%_3_0 4904))
         (= main@%_br_0 (+ main@%_5_0 4924)))
    (main@empty.loop main@%loop.bound_0 main@%_call1_0 main@%_br_0)))
(rule (=> (and (main@_.01 main@%.01_0 main@%.0_0 main@%loop.bound_0)
         true
         (= main@%_not._0 (> main@%.01_0 4))
         (= main@%not._0 (xor main@%_not._0 true))
         (= main@%_.12_0 (ite main@%not._0 1 0))
         (= main@%.12_0 (+ main@%.01_0 main@%_.12_0))
         (= main@%_.1_0 (ite main@%_not._0 1 0))
         (= main@%.1_0 (+ main@%.0_0 main@%_.1_0))
         (= main@%_11_0 (+ main@%.12_0 main@%.1_0))
         (= main@%_br2_0 (= main@%_11_0 main@%loop.bound_0))
         main@%_br2_0)
    main@_ret))
(rule (=> (and (main@_.01 main@%.01_0 main@%.0_0 main@%loop.bound_0)
         true
         (= main@%_not._0 (> main@%.01_0 4))
         (= main@%not._0 (xor main@%_not._0 true))
         (= main@%_.12_0 (ite main@%not._0 1 0))
         (= main@%.12_0 (+ main@%.01_0 main@%_.12_0))
         (= main@%_.1_0 (ite main@%_not._0 1 0))
         (= main@%.1_0 (+ main@%.0_0 main@%_.1_0))
         (= main@%_11_0 (+ main@%.12_0 main@%.1_0))
         (= main@%_br2_0 (= main@%_11_0 main@%loop.bound_0))
         (not main@%_br2_0))
    (main@_13 main@%.12_0 main@%.1_0 main@%loop.bound_0)))
(rule (=> (and (main@_13 main@%.12_0 main@%.1_0 main@%loop.bound_0)
         true
         (= main@%_br3_0 (+ main@%.12_0 1))
         (= main@%.01_0 main@%_br3_0)
         (= main@%.0_0 main@%.1_0))
    (main@_.01 main@%.01_0 main@%.0_0 main@%loop.bound_0)))
(rule (=> (and (main@empty.loop main@%loop.bound_0 main@%_call1_0 main@%_br_0)
         true
         main@%nd.loop.cond_0)
    (main@empty.loop.body main@%loop.bound_0 main@%_call1_0 main@%_br_0)))
(rule (=> (and (main@empty.loop main@%loop.bound_0 main@%_call1_0 main@%_br_0)
         true
         (not main@%nd.loop.cond_0)
         (= main@%.01_0 main@%_call1_0)
         (= main@%.0_0 main@%_br_0))
    (main@_.01 main@%.01_0 main@%.0_0 main@%loop.bound_0)))
(rule (=> (main@empty.loop.body main@%loop.bound_0 main@%_call1_0 main@%_br_0)
    (main@empty.loop main@%loop.bound_0 main@%_call1_0 main@%_br_0)))
(query main@_ret)

